RAW/XT/fspd/X-n129-k18.vrp_seed-9.out
26126	23.822	25.993
