RAW/XT/fspd/X-n129-k18.vrp_seed-9.sol
Route #1: 3
Route #2: 86 93 75 103 89 66 15 91
Route #3: 64 44 1 23 59 18 88
Route #4: 9 124 30 43 39 67
Route #5: 7 54 22 45 29 6 19 63 20 50
Route #6: 84 25 62 56 13 57 35 77 60 90
Route #7: 113 82 27 52 119 78
Route #8: 102 112 72 100 108 71 126 26
Route #9: 32 114 73 49 92 116 95 96 12 16
Route #10: 5 106 68 98 4 111 94 121 80
Route #11: 47 127 28 118 38
Route #12: 65 105 11 41 40 55 61 85 76 79 10 104
Route #13: 74 14 69 8 37 120 51 109 83 24
Route #14: 53 123 117 99 42 97 31 125
Route #15: 87 81 36 107 122 115 70
Route #16: 128 110 17 101 58 48 2 34 21 33 46
Cost 26126.000000